NAME : global
TYPE : ATSP
DIMENSION : 11
EDGE_WEIGHT_TYPE : EXPLICIT
EDGE_WEIGHT_FORMAT : FULL_MATRIX
EDGE_WEIGHT_SECTION
0 5339 1827 3668 3816 4896 3439 3030 4245 4735 5680 
0 0 4206 2119 3885 2123 3266 5080 6910 5509 3929 
0 4206 0 2523 3178 3483 1928 1666 3666 3614 4327 
0 2119 2523 0 1996 2747 2585 3737 5882 5065 4451 
0 3885 3178 1996 0 4700 4172 4528 6772 6473 6308 
0 2123 3483 2747 4700 0 1760 3715 5165 3500 1861 
0 3266 1928 2585 4172 1760 0 2025 3647 2494 2421 
0 5080 1666 3737 4528 3715 2025 0 2333 2455 3876 
0 6910 3666 5882 6772 5165 3647 2333 0 2094 4493 
0 5509 3614 5065 6473 3500 2494 2455 2094 0 2447 
0 3929 4327 4451 6308 1861 2421 3876 4493 2447 0 
EOF